array [1..8] of int: X_INTRODUCED_495_ = [1,1,1,1,-1,-1,-1,-1];
array [1..6] of int: X_INTRODUCED_499_ = [1,1,1,-1,-1,-1];
array [1..4] of int: X_INTRODUCED_503_ = [1,1,-1,-1];
var 0..1: X_INTRODUCED_0_;
var 0..1: X_INTRODUCED_1_;
var 0..1: X_INTRODUCED_2_;
var 0..1: X_INTRODUCED_3_;
var 0..1: X_INTRODUCED_4_;
var 0..1: X_INTRODUCED_5_;
var 0..1: X_INTRODUCED_6_;
var 0..1: X_INTRODUCED_7_;
var 0..1: X_INTRODUCED_8_;
var 0..1: X_INTRODUCED_9_;
var 0..1: X_INTRODUCED_10_;
var 0..1: X_INTRODUCED_11_;
var 0..1: X_INTRODUCED_12_;
var 0..1: X_INTRODUCED_13_;
var 0..1: X_INTRODUCED_14_;
var 0..1: X_INTRODUCED_15_;
var 0..1: X_INTRODUCED_16_;
var 0..1: X_INTRODUCED_17_;
var 0..1: X_INTRODUCED_18_;
var 0..1: X_INTRODUCED_19_;
var 0..1: X_INTRODUCED_20_;
var 0..1: X_INTRODUCED_21_;
var 0..1: X_INTRODUCED_22_;
var 0..1: X_INTRODUCED_23_;
var 0..1: X_INTRODUCED_24_;
var 0..1: X_INTRODUCED_25_;
var 0..1: X_INTRODUCED_26_;
var 0..1: X_INTRODUCED_27_;
var 0..1: X_INTRODUCED_28_;
var 0..1: X_INTRODUCED_29_;
var 0..1: X_INTRODUCED_30_;
var 0..1: X_INTRODUCED_31_;
var 0..1: X_INTRODUCED_32_;
var 0..1: X_INTRODUCED_33_;
var 0..1: X_INTRODUCED_34_;
var 0..1: X_INTRODUCED_35_;
var 0..1: X_INTRODUCED_36_;
var 0..1: X_INTRODUCED_37_;
var 0..1: X_INTRODUCED_38_;
var 0..1: X_INTRODUCED_39_;
var 0..1: X_INTRODUCED_40_;
var 0..1: X_INTRODUCED_41_;
var 0..1: X_INTRODUCED_42_;
var 0..1: X_INTRODUCED_43_;
var 0..1: X_INTRODUCED_44_;
var 0..1: X_INTRODUCED_45_;
var 0..1: X_INTRODUCED_46_;
var 0..1: X_INTRODUCED_47_;
var 0..1: X_INTRODUCED_48_;
var 0..1: X_INTRODUCED_49_;
var 0..1: X_INTRODUCED_50_;
var 0..1: X_INTRODUCED_51_;
var 0..1: X_INTRODUCED_52_;
var 0..1: X_INTRODUCED_53_;
var 0..1: X_INTRODUCED_54_;
var 0..1: X_INTRODUCED_55_;
var 0..1: X_INTRODUCED_56_;
var 0..1: X_INTRODUCED_57_;
var 0..1: X_INTRODUCED_58_;
var 0..1: X_INTRODUCED_59_;
var 0..1: X_INTRODUCED_60_;
var 0..1: X_INTRODUCED_61_;
var 0..1: X_INTRODUCED_62_;
var 0..1: X_INTRODUCED_63_;
var 0..1: X_INTRODUCED_64_;
var 0..1: X_INTRODUCED_65_;
var 0..1: X_INTRODUCED_66_;
var 0..1: X_INTRODUCED_67_;
var 0..1: X_INTRODUCED_68_;
var 0..1: X_INTRODUCED_69_;
var 0..1: X_INTRODUCED_70_;
var 0..1: X_INTRODUCED_71_;
var 0..1: X_INTRODUCED_72_;
var 0..1: X_INTRODUCED_73_;
var 0..1: X_INTRODUCED_74_;
var 0..1: X_INTRODUCED_75_;
var 0..1: X_INTRODUCED_76_;
var 0..1: X_INTRODUCED_77_;
var 0..1: X_INTRODUCED_78_;
var 0..1: X_INTRODUCED_79_;
var 0..1: X_INTRODUCED_80_;
var 0..1: X_INTRODUCED_81_;
var 0..1: X_INTRODUCED_82_;
var 0..1: X_INTRODUCED_83_;
var 0..1: X_INTRODUCED_84_;
var 0..1: X_INTRODUCED_85_;
var 0..1: X_INTRODUCED_86_;
var 0..1: X_INTRODUCED_87_;
var 0..1: X_INTRODUCED_88_;
var 0..1: X_INTRODUCED_89_;
var 0..1: X_INTRODUCED_90_;
var 0..1: X_INTRODUCED_91_;
var 0..1: X_INTRODUCED_92_;
var 0..1: X_INTRODUCED_93_;
var 0..1: X_INTRODUCED_94_;
var 0..1: X_INTRODUCED_95_;
var 0..1: X_INTRODUCED_96_;
var 0..1: X_INTRODUCED_97_;
var 0..1: X_INTRODUCED_98_;
var 0..1: X_INTRODUCED_99_;
var 0..1: X_INTRODUCED_100_;
var 0..1: X_INTRODUCED_101_;
var 0..1: X_INTRODUCED_102_;
var 0..1: X_INTRODUCED_103_;
var 0..1: X_INTRODUCED_104_;
var 0..1: X_INTRODUCED_105_;
var 0..1: X_INTRODUCED_106_;
var 0..1: X_INTRODUCED_107_;
var 0..1: X_INTRODUCED_108_;
var 0..1: X_INTRODUCED_109_;
var 0..1: X_INTRODUCED_110_;
var 0..1: X_INTRODUCED_111_;
var 0..1: X_INTRODUCED_112_;
var 0..1: X_INTRODUCED_113_;
var 0..1: X_INTRODUCED_114_;
var 0..1: X_INTRODUCED_115_;
var 0..1: X_INTRODUCED_116_;
var 0..1: X_INTRODUCED_117_;
var 0..1: X_INTRODUCED_118_;
var 0..1: X_INTRODUCED_119_;
var 0..1: X_INTRODUCED_120_;
var 0..1: X_INTRODUCED_121_;
var 0..1: X_INTRODUCED_122_;
var 0..1: X_INTRODUCED_123_;
var 0..1: X_INTRODUCED_124_;
var 0..1: X_INTRODUCED_125_;
var 0..1: X_INTRODUCED_126_;
var 0..1: X_INTRODUCED_127_;
var 0..1: X_INTRODUCED_128_;
var 0..1: X_INTRODUCED_129_;
var 0..1: X_INTRODUCED_130_;
var 0..1: X_INTRODUCED_131_;
var 0..1: X_INTRODUCED_132_;
var 0..1: X_INTRODUCED_133_;
var 0..1: X_INTRODUCED_134_;
var 0..1: X_INTRODUCED_135_;
var 0..1: X_INTRODUCED_136_;
var 0..1: X_INTRODUCED_137_;
var 0..1: X_INTRODUCED_138_;
var 0..1: X_INTRODUCED_139_;
var 0..1: X_INTRODUCED_140_;
var 0..1: X_INTRODUCED_141_;
var 0..1: X_INTRODUCED_142_;
var 0..1: X_INTRODUCED_143_;
var 0..1: X_INTRODUCED_144_;
var 0..1: X_INTRODUCED_145_;
var 0..1: X_INTRODUCED_146_;
var 0..1: X_INTRODUCED_147_;
var 0..1: X_INTRODUCED_148_;
var 0..1: X_INTRODUCED_149_;
var 0..1: X_INTRODUCED_150_;
var 0..1: X_INTRODUCED_151_;
var 0..1: X_INTRODUCED_152_;
var 0..1: X_INTRODUCED_153_;
var 0..1: X_INTRODUCED_154_;
var 0..1: X_INTRODUCED_155_;
var 0..1: X_INTRODUCED_156_;
var 0..1: X_INTRODUCED_157_;
var 0..1: X_INTRODUCED_158_;
var 0..1: X_INTRODUCED_159_;
var 0..1: X_INTRODUCED_160_;
var 0..1: X_INTRODUCED_161_;
var 0..1: X_INTRODUCED_162_;
var 0..1: X_INTRODUCED_163_;
var 0..1: X_INTRODUCED_164_;
var 0..1: X_INTRODUCED_165_;
var 0..1: X_INTRODUCED_166_;
var 0..1: X_INTRODUCED_167_;
var 0..1: X_INTRODUCED_168_;
var 0..1: X_INTRODUCED_169_;
var 0..1: X_INTRODUCED_170_;
var 0..1: X_INTRODUCED_171_;
var 0..1: X_INTRODUCED_172_;
var 0..1: X_INTRODUCED_173_;
var 0..1: X_INTRODUCED_174_;
var 0..1: X_INTRODUCED_175_;
var 0..1: X_INTRODUCED_176_;
var 0..1: X_INTRODUCED_177_;
var 0..1: X_INTRODUCED_178_;
var 0..1: X_INTRODUCED_179_;
var 0..1: X_INTRODUCED_180_;
var 0..1: X_INTRODUCED_181_;
var 0..1: X_INTRODUCED_182_;
var 0..1: X_INTRODUCED_183_;
var 0..1: X_INTRODUCED_184_;
var 0..1: X_INTRODUCED_185_;
var 0..1: X_INTRODUCED_186_;
var 0..1: X_INTRODUCED_187_;
var 0..1: X_INTRODUCED_188_;
var 0..1: X_INTRODUCED_189_;
var 0..1: X_INTRODUCED_190_;
var 0..1: X_INTRODUCED_191_;
var 0..1: X_INTRODUCED_192_;
var 0..1: X_INTRODUCED_193_;
var 0..1: X_INTRODUCED_194_;
var 0..1: X_INTRODUCED_195_;
var 0..1: X_INTRODUCED_196_;
var 0..1: X_INTRODUCED_197_;
var 0..1: X_INTRODUCED_198_;
var 0..1: X_INTRODUCED_199_;
var 0..1: X_INTRODUCED_200_;
var 0..1: X_INTRODUCED_201_;
var 0..1: X_INTRODUCED_202_;
var 0..1: X_INTRODUCED_203_;
var 0..1: X_INTRODUCED_204_;
var 0..1: X_INTRODUCED_205_;
var 0..1: X_INTRODUCED_206_;
var 0..1: X_INTRODUCED_207_;
var 0..1: X_INTRODUCED_208_;
var 0..1: X_INTRODUCED_209_;
var 0..1: X_INTRODUCED_210_;
var 0..1: X_INTRODUCED_211_;
var 0..1: X_INTRODUCED_212_;
var 0..1: X_INTRODUCED_213_;
var 0..1: X_INTRODUCED_214_;
var 0..1: X_INTRODUCED_215_;
var 0..6778: X_INTRODUCED_216_:: computed_domain:: is_defined_var;
array [1..216] of var int: x:: output_array([1..216]) = [X_INTRODUCED_0_,X_INTRODUCED_1_,X_INTRODUCED_2_,X_INTRODUCED_3_,X_INTRODUCED_4_,X_INTRODUCED_5_,X_INTRODUCED_6_,X_INTRODUCED_7_,X_INTRODUCED_8_,X_INTRODUCED_9_,X_INTRODUCED_10_,X_INTRODUCED_11_,X_INTRODUCED_12_,X_INTRODUCED_13_,X_INTRODUCED_14_,X_INTRODUCED_15_,X_INTRODUCED_16_,X_INTRODUCED_17_,X_INTRODUCED_18_,X_INTRODUCED_19_,X_INTRODUCED_20_,X_INTRODUCED_21_,X_INTRODUCED_22_,X_INTRODUCED_23_,X_INTRODUCED_24_,X_INTRODUCED_25_,X_INTRODUCED_26_,X_INTRODUCED_27_,X_INTRODUCED_28_,X_INTRODUCED_29_,X_INTRODUCED_30_,X_INTRODUCED_31_,X_INTRODUCED_32_,X_INTRODUCED_33_,X_INTRODUCED_34_,X_INTRODUCED_35_,X_INTRODUCED_36_,X_INTRODUCED_37_,X_INTRODUCED_38_,X_INTRODUCED_39_,X_INTRODUCED_40_,X_INTRODUCED_41_,X_INTRODUCED_42_,X_INTRODUCED_43_,X_INTRODUCED_44_,X_INTRODUCED_45_,X_INTRODUCED_46_,X_INTRODUCED_47_,X_INTRODUCED_48_,X_INTRODUCED_49_,X_INTRODUCED_50_,X_INTRODUCED_51_,X_INTRODUCED_52_,X_INTRODUCED_53_,X_INTRODUCED_54_,X_INTRODUCED_55_,X_INTRODUCED_56_,X_INTRODUCED_57_,X_INTRODUCED_58_,X_INTRODUCED_59_,X_INTRODUCED_60_,X_INTRODUCED_61_,X_INTRODUCED_62_,X_INTRODUCED_63_,X_INTRODUCED_64_,X_INTRODUCED_65_,X_INTRODUCED_66_,X_INTRODUCED_67_,X_INTRODUCED_68_,X_INTRODUCED_69_,X_INTRODUCED_70_,X_INTRODUCED_71_,X_INTRODUCED_72_,X_INTRODUCED_73_,X_INTRODUCED_74_,X_INTRODUCED_75_,X_INTRODUCED_76_,X_INTRODUCED_77_,X_INTRODUCED_78_,X_INTRODUCED_79_,X_INTRODUCED_80_,X_INTRODUCED_81_,X_INTRODUCED_82_,X_INTRODUCED_83_,X_INTRODUCED_84_,X_INTRODUCED_85_,X_INTRODUCED_86_,X_INTRODUCED_87_,X_INTRODUCED_88_,X_INTRODUCED_89_,X_INTRODUCED_90_,X_INTRODUCED_91_,X_INTRODUCED_92_,X_INTRODUCED_93_,X_INTRODUCED_94_,X_INTRODUCED_95_,X_INTRODUCED_96_,X_INTRODUCED_97_,X_INTRODUCED_98_,X_INTRODUCED_99_,X_INTRODUCED_100_,X_INTRODUCED_101_,X_INTRODUCED_102_,X_INTRODUCED_103_,X_INTRODUCED_104_,X_INTRODUCED_105_,X_INTRODUCED_106_,X_INTRODUCED_107_,X_INTRODUCED_108_,X_INTRODUCED_109_,X_INTRODUCED_110_,X_INTRODUCED_111_,X_INTRODUCED_112_,X_INTRODUCED_113_,X_INTRODUCED_114_,X_INTRODUCED_115_,X_INTRODUCED_116_,X_INTRODUCED_117_,X_INTRODUCED_118_,X_INTRODUCED_119_,X_INTRODUCED_120_,X_INTRODUCED_121_,X_INTRODUCED_122_,X_INTRODUCED_123_,X_INTRODUCED_124_,X_INTRODUCED_125_,X_INTRODUCED_126_,X_INTRODUCED_127_,X_INTRODUCED_128_,X_INTRODUCED_129_,X_INTRODUCED_130_,X_INTRODUCED_131_,X_INTRODUCED_132_,X_INTRODUCED_133_,X_INTRODUCED_134_,X_INTRODUCED_135_,X_INTRODUCED_136_,X_INTRODUCED_137_,X_INTRODUCED_138_,X_INTRODUCED_139_,X_INTRODUCED_140_,X_INTRODUCED_141_,X_INTRODUCED_142_,X_INTRODUCED_143_,X_INTRODUCED_144_,X_INTRODUCED_145_,X_INTRODUCED_146_,X_INTRODUCED_147_,X_INTRODUCED_148_,X_INTRODUCED_149_,X_INTRODUCED_150_,X_INTRODUCED_151_,X_INTRODUCED_152_,X_INTRODUCED_153_,X_INTRODUCED_154_,X_INTRODUCED_155_,X_INTRODUCED_156_,X_INTRODUCED_157_,X_INTRODUCED_158_,X_INTRODUCED_159_,X_INTRODUCED_160_,X_INTRODUCED_161_,X_INTRODUCED_162_,X_INTRODUCED_163_,X_INTRODUCED_164_,X_INTRODUCED_165_,X_INTRODUCED_166_,X_INTRODUCED_167_,X_INTRODUCED_168_,X_INTRODUCED_169_,X_INTRODUCED_170_,X_INTRODUCED_171_,X_INTRODUCED_172_,X_INTRODUCED_173_,X_INTRODUCED_174_,X_INTRODUCED_175_,X_INTRODUCED_176_,X_INTRODUCED_177_,X_INTRODUCED_178_,X_INTRODUCED_179_,X_INTRODUCED_180_,X_INTRODUCED_181_,X_INTRODUCED_182_,X_INTRODUCED_183_,X_INTRODUCED_184_,X_INTRODUCED_185_,X_INTRODUCED_186_,X_INTRODUCED_187_,X_INTRODUCED_188_,X_INTRODUCED_189_,X_INTRODUCED_190_,X_INTRODUCED_191_,X_INTRODUCED_192_,X_INTRODUCED_193_,X_INTRODUCED_194_,X_INTRODUCED_195_,X_INTRODUCED_196_,X_INTRODUCED_197_,X_INTRODUCED_198_,X_INTRODUCED_199_,X_INTRODUCED_200_,X_INTRODUCED_201_,X_INTRODUCED_202_,X_INTRODUCED_203_,X_INTRODUCED_204_,X_INTRODUCED_205_,X_INTRODUCED_206_,X_INTRODUCED_207_,X_INTRODUCED_208_,X_INTRODUCED_209_,X_INTRODUCED_210_,X_INTRODUCED_211_,X_INTRODUCED_212_,X_INTRODUCED_213_,X_INTRODUCED_214_,X_INTRODUCED_215_];
constraint int_lin_eq(X_INTRODUCED_495_,[X_INTRODUCED_151_,X_INTRODUCED_152_,X_INTRODUCED_153_,X_INTRODUCED_154_,X_INTRODUCED_92_,X_INTRODUCED_148_,X_INTRODUCED_155_,X_INTRODUCED_204_],1);
constraint int_lin_eq(X_INTRODUCED_499_,[X_INTRODUCED_181_,X_INTRODUCED_182_,X_INTRODUCED_183_,X_INTRODUCED_126_,X_INTRODUCED_179_,X_INTRODUCED_184_],0);
constraint int_lin_eq(X_INTRODUCED_503_,[X_INTRODUCED_0_,X_INTRODUCED_1_,X_INTRODUCED_2_,X_INTRODUCED_47_],0);
constraint int_lin_eq(X_INTRODUCED_495_,[X_INTRODUCED_131_,X_INTRODUCED_132_,X_INTRODUCED_133_,X_INTRODUCED_134_,X_INTRODUCED_72_,X_INTRODUCED_128_,X_INTRODUCED_135_,X_INTRODUCED_189_],0);
constraint int_lin_eq(X_INTRODUCED_499_,[X_INTRODUCED_196_,X_INTRODUCED_197_,X_INTRODUCED_198_,X_INTRODUCED_146_,X_INTRODUCED_194_,X_INTRODUCED_199_],0);
constraint int_lin_eq(X_INTRODUCED_495_,[X_INTRODUCED_89_,X_INTRODUCED_90_,X_INTRODUCED_91_,X_INTRODUCED_92_,X_INTRODUCED_34_,X_INTRODUCED_86_,X_INTRODUCED_93_,X_INTRODUCED_153_],0);
constraint int_lin_eq(X_INTRODUCED_495_,[X_INTRODUCED_139_,X_INTRODUCED_140_,X_INTRODUCED_141_,X_INTRODUCED_142_,X_INTRODUCED_80_,X_INTRODUCED_136_,X_INTRODUCED_143_,X_INTRODUCED_195_],0);
constraint int_lin_eq(X_INTRODUCED_499_,[X_INTRODUCED_193_,X_INTRODUCED_194_,X_INTRODUCED_195_,X_INTRODUCED_142_,X_INTRODUCED_191_,X_INTRODUCED_196_],0);
constraint int_lin_eq(X_INTRODUCED_495_,[X_INTRODUCED_135_,X_INTRODUCED_136_,X_INTRODUCED_137_,X_INTRODUCED_138_,X_INTRODUCED_76_,X_INTRODUCED_132_,X_INTRODUCED_139_,X_INTRODUCED_192_],0);
constraint int_lin_eq(X_INTRODUCED_499_,[X_INTRODUCED_41_,X_INTRODUCED_42_,X_INTRODUCED_43_,X_INTRODUCED_39_,X_INTRODUCED_44_,X_INTRODUCED_103_],0);
constraint int_lin_eq(X_INTRODUCED_499_,[X_INTRODUCED_108_,X_INTRODUCED_109_,X_INTRODUCED_110_,X_INTRODUCED_48_,X_INTRODUCED_111_,X_INTRODUCED_171_],0);
constraint int_lin_eq(X_INTRODUCED_499_,[X_INTRODUCED_202_,X_INTRODUCED_203_,X_INTRODUCED_204_,X_INTRODUCED_154_,X_INTRODUCED_200_,X_INTRODUCED_205_],0);
constraint int_lin_eq(X_INTRODUCED_499_,[X_INTRODUCED_32_,X_INTRODUCED_33_,X_INTRODUCED_34_,X_INTRODUCED_30_,X_INTRODUCED_35_,X_INTRODUCED_91_],0);
constraint int_lin_eq(X_INTRODUCED_495_,[X_INTRODUCED_85_,X_INTRODUCED_86_,X_INTRODUCED_87_,X_INTRODUCED_88_,X_INTRODUCED_31_,X_INTRODUCED_82_,X_INTRODUCED_89_,X_INTRODUCED_149_],0);
constraint int_lin_eq(X_INTRODUCED_499_,[X_INTRODUCED_8_,X_INTRODUCED_9_,X_INTRODUCED_10_,X_INTRODUCED_6_,X_INTRODUCED_11_,X_INTRODUCED_59_],0);
constraint int_lin_eq(X_INTRODUCED_495_,[X_INTRODUCED_81_,X_INTRODUCED_82_,X_INTRODUCED_83_,X_INTRODUCED_84_,X_INTRODUCED_28_,X_INTRODUCED_78_,X_INTRODUCED_85_,X_INTRODUCED_145_],0);
constraint int_lin_eq(X_INTRODUCED_499_,[X_INTRODUCED_178_,X_INTRODUCED_179_,X_INTRODUCED_180_,X_INTRODUCED_122_,X_INTRODUCED_176_,X_INTRODUCED_181_],0);
constraint int_lin_eq(X_INTRODUCED_499_,[X_INTRODUCED_105_,X_INTRODUCED_106_,X_INTRODUCED_107_,X_INTRODUCED_45_,X_INTRODUCED_102_,X_INTRODUCED_168_],0);
constraint int_lin_eq(X_INTRODUCED_495_,[X_INTRODUCED_123_,X_INTRODUCED_124_,X_INTRODUCED_125_,X_INTRODUCED_126_,X_INTRODUCED_64_,X_INTRODUCED_120_,X_INTRODUCED_127_,X_INTRODUCED_183_],0);
constraint int_lin_eq(X_INTRODUCED_499_,[X_INTRODUCED_5_,X_INTRODUCED_6_,X_INTRODUCED_7_,X_INTRODUCED_3_,X_INTRODUCED_8_,X_INTRODUCED_55_],0);
constraint int_lin_eq(X_INTRODUCED_499_,[X_INTRODUCED_2_,X_INTRODUCED_3_,X_INTRODUCED_4_,X_INTRODUCED_0_,X_INTRODUCED_5_,X_INTRODUCED_51_],0);
constraint int_lin_eq(X_INTRODUCED_499_,[X_INTRODUCED_23_,X_INTRODUCED_24_,X_INTRODUCED_25_,X_INTRODUCED_21_,X_INTRODUCED_26_,X_INTRODUCED_79_],0);
constraint int_lin_eq(X_INTRODUCED_503_,[X_INTRODUCED_44_,X_INTRODUCED_45_,X_INTRODUCED_42_,X_INTRODUCED_106_],0);
constraint int_lin_eq(X_INTRODUCED_495_,[X_INTRODUCED_49_,X_INTRODUCED_50_,X_INTRODUCED_51_,X_INTRODUCED_52_,X_INTRODUCED_4_,X_INTRODUCED_46_,X_INTRODUCED_53_,X_INTRODUCED_113_],0);
constraint int_lin_eq(X_INTRODUCED_499_,[X_INTRODUCED_35_,X_INTRODUCED_36_,X_INTRODUCED_37_,X_INTRODUCED_33_,X_INTRODUCED_38_,X_INTRODUCED_95_],0);
constraint int_lin_eq(X_INTRODUCED_499_,[X_INTRODUCED_26_,X_INTRODUCED_27_,X_INTRODUCED_28_,X_INTRODUCED_24_,X_INTRODUCED_29_,X_INTRODUCED_83_],0);
constraint int_lin_eq(X_INTRODUCED_495_,[X_INTRODUCED_127_,X_INTRODUCED_128_,X_INTRODUCED_129_,X_INTRODUCED_130_,X_INTRODUCED_68_,X_INTRODUCED_124_,X_INTRODUCED_131_,X_INTRODUCED_186_],0);
constraint int_lin_eq(X_INTRODUCED_499_,[X_INTRODUCED_14_,X_INTRODUCED_15_,X_INTRODUCED_16_,X_INTRODUCED_12_,X_INTRODUCED_17_,X_INTRODUCED_67_],0);
constraint int_lin_eq(X_INTRODUCED_495_,[X_INTRODUCED_73_,X_INTRODUCED_74_,X_INTRODUCED_75_,X_INTRODUCED_76_,X_INTRODUCED_22_,X_INTRODUCED_70_,X_INTRODUCED_77_,X_INTRODUCED_137_],0);
constraint int_lin_eq(X_INTRODUCED_499_,[X_INTRODUCED_205_,X_INTRODUCED_206_,X_INTRODUCED_207_,X_INTRODUCED_158_,X_INTRODUCED_203_,X_INTRODUCED_208_],0);
constraint int_lin_eq(X_INTRODUCED_499_,[X_INTRODUCED_184_,X_INTRODUCED_185_,X_INTRODUCED_186_,X_INTRODUCED_130_,X_INTRODUCED_182_,X_INTRODUCED_187_],0);
constraint int_lin_eq(X_INTRODUCED_499_,[X_INTRODUCED_208_,X_INTRODUCED_209_,X_INTRODUCED_210_,X_INTRODUCED_162_,X_INTRODUCED_206_,X_INTRODUCED_211_],0);
constraint int_lin_eq(X_INTRODUCED_495_,[X_INTRODUCED_101_,X_INTRODUCED_102_,X_INTRODUCED_103_,X_INTRODUCED_104_,X_INTRODUCED_43_,X_INTRODUCED_98_,X_INTRODUCED_105_,X_INTRODUCED_165_],0);
constraint int_lin_eq(X_INTRODUCED_499_,[X_INTRODUCED_11_,X_INTRODUCED_12_,X_INTRODUCED_13_,X_INTRODUCED_9_,X_INTRODUCED_14_,X_INTRODUCED_63_],0);
constraint int_lin_eq(X_INTRODUCED_495_,[X_INTRODUCED_69_,X_INTRODUCED_70_,X_INTRODUCED_71_,X_INTRODUCED_72_,X_INTRODUCED_19_,X_INTRODUCED_66_,X_INTRODUCED_73_,X_INTRODUCED_133_],0);
constraint int_lin_eq(X_INTRODUCED_495_,[X_INTRODUCED_147_,X_INTRODUCED_148_,X_INTRODUCED_149_,X_INTRODUCED_150_,X_INTRODUCED_88_,X_INTRODUCED_144_,X_INTRODUCED_151_,X_INTRODUCED_201_],0);
constraint int_lin_eq(X_INTRODUCED_499_,[X_INTRODUCED_172_,X_INTRODUCED_173_,X_INTRODUCED_174_,X_INTRODUCED_114_,X_INTRODUCED_170_,X_INTRODUCED_175_],0);
constraint int_lin_eq(X_INTRODUCED_495_,[X_INTRODUCED_93_,X_INTRODUCED_94_,X_INTRODUCED_95_,X_INTRODUCED_96_,X_INTRODUCED_37_,X_INTRODUCED_90_,X_INTRODUCED_97_,X_INTRODUCED_157_],0);
constraint int_lin_eq(X_INTRODUCED_495_,[X_INTRODUCED_115_,X_INTRODUCED_116_,X_INTRODUCED_117_,X_INTRODUCED_118_,X_INTRODUCED_56_,X_INTRODUCED_112_,X_INTRODUCED_119_,X_INTRODUCED_177_],0);
constraint int_lin_eq(X_INTRODUCED_499_,[X_INTRODUCED_46_,X_INTRODUCED_47_,X_INTRODUCED_48_,X_INTRODUCED_1_,X_INTRODUCED_49_,X_INTRODUCED_109_],0);
constraint int_lin_eq(X_INTRODUCED_503_,[X_INTRODUCED_170_,X_INTRODUCED_171_,X_INTRODUCED_110_,X_INTRODUCED_172_],0);
constraint int_lin_eq(X_INTRODUCED_495_,[X_INTRODUCED_159_,X_INTRODUCED_160_,X_INTRODUCED_161_,X_INTRODUCED_162_,X_INTRODUCED_100_,X_INTRODUCED_156_,X_INTRODUCED_163_,X_INTRODUCED_210_],0);
constraint int_lin_eq(X_INTRODUCED_495_,[X_INTRODUCED_61_,X_INTRODUCED_62_,X_INTRODUCED_63_,X_INTRODUCED_64_,X_INTRODUCED_13_,X_INTRODUCED_58_,X_INTRODUCED_65_,X_INTRODUCED_125_],0);
constraint int_lin_eq(X_INTRODUCED_495_,[X_INTRODUCED_53_,X_INTRODUCED_54_,X_INTRODUCED_55_,X_INTRODUCED_56_,X_INTRODUCED_7_,X_INTRODUCED_50_,X_INTRODUCED_57_,X_INTRODUCED_117_],0);
constraint int_lin_eq(X_INTRODUCED_495_,[X_INTRODUCED_77_,X_INTRODUCED_78_,X_INTRODUCED_79_,X_INTRODUCED_80_,X_INTRODUCED_25_,X_INTRODUCED_74_,X_INTRODUCED_81_,X_INTRODUCED_141_],0);
constraint int_lin_eq(X_INTRODUCED_495_,[X_INTRODUCED_155_,X_INTRODUCED_156_,X_INTRODUCED_157_,X_INTRODUCED_158_,X_INTRODUCED_96_,X_INTRODUCED_152_,X_INTRODUCED_159_,X_INTRODUCED_207_],0);
constraint int_lin_eq(X_INTRODUCED_495_,[X_INTRODUCED_97_,X_INTRODUCED_98_,X_INTRODUCED_99_,X_INTRODUCED_100_,X_INTRODUCED_40_,X_INTRODUCED_94_,X_INTRODUCED_101_,X_INTRODUCED_161_],0);
constraint int_lin_eq(X_INTRODUCED_499_,[X_INTRODUCED_17_,X_INTRODUCED_18_,X_INTRODUCED_19_,X_INTRODUCED_15_,X_INTRODUCED_20_,X_INTRODUCED_71_],0);
constraint int_lin_eq(X_INTRODUCED_499_,[X_INTRODUCED_167_,X_INTRODUCED_168_,X_INTRODUCED_169_,X_INTRODUCED_107_,X_INTRODUCED_164_,X_INTRODUCED_215_],0);
constraint int_lin_eq(X_INTRODUCED_495_,[X_INTRODUCED_163_,X_INTRODUCED_164_,X_INTRODUCED_165_,X_INTRODUCED_166_,X_INTRODUCED_104_,X_INTRODUCED_160_,X_INTRODUCED_167_,X_INTRODUCED_213_],0);
constraint int_lin_eq(X_INTRODUCED_499_,[X_INTRODUCED_199_,X_INTRODUCED_200_,X_INTRODUCED_201_,X_INTRODUCED_150_,X_INTRODUCED_197_,X_INTRODUCED_202_],0);
constraint int_lin_eq(X_INTRODUCED_495_,[X_INTRODUCED_119_,X_INTRODUCED_120_,X_INTRODUCED_121_,X_INTRODUCED_122_,X_INTRODUCED_60_,X_INTRODUCED_116_,X_INTRODUCED_123_,X_INTRODUCED_180_],0);
constraint int_lin_eq(X_INTRODUCED_495_,[X_INTRODUCED_143_,X_INTRODUCED_144_,X_INTRODUCED_145_,X_INTRODUCED_146_,X_INTRODUCED_84_,X_INTRODUCED_140_,X_INTRODUCED_147_,X_INTRODUCED_198_],0);
constraint int_lin_eq(X_INTRODUCED_495_,[X_INTRODUCED_57_,X_INTRODUCED_58_,X_INTRODUCED_59_,X_INTRODUCED_60_,X_INTRODUCED_10_,X_INTRODUCED_54_,X_INTRODUCED_61_,X_INTRODUCED_121_],0);
constraint int_lin_eq(X_INTRODUCED_499_,[X_INTRODUCED_190_,X_INTRODUCED_191_,X_INTRODUCED_192_,X_INTRODUCED_138_,X_INTRODUCED_188_,X_INTRODUCED_193_],0);
constraint int_lin_eq(X_INTRODUCED_499_,[X_INTRODUCED_20_,X_INTRODUCED_21_,X_INTRODUCED_22_,X_INTRODUCED_18_,X_INTRODUCED_23_,X_INTRODUCED_75_],0);
constraint int_lin_eq(X_INTRODUCED_503_,[X_INTRODUCED_214_,X_INTRODUCED_215_,X_INTRODUCED_169_,X_INTRODUCED_212_],0);
constraint int_lin_eq(X_INTRODUCED_495_,[X_INTRODUCED_65_,X_INTRODUCED_66_,X_INTRODUCED_67_,X_INTRODUCED_68_,X_INTRODUCED_16_,X_INTRODUCED_62_,X_INTRODUCED_69_,X_INTRODUCED_129_],0);
constraint int_lin_eq(X_INTRODUCED_499_,[X_INTRODUCED_175_,X_INTRODUCED_176_,X_INTRODUCED_177_,X_INTRODUCED_118_,X_INTRODUCED_173_,X_INTRODUCED_178_],0);
constraint int_lin_eq(X_INTRODUCED_495_,[X_INTRODUCED_111_,X_INTRODUCED_112_,X_INTRODUCED_113_,X_INTRODUCED_114_,X_INTRODUCED_52_,X_INTRODUCED_108_,X_INTRODUCED_115_,X_INTRODUCED_174_],0);
constraint int_lin_eq(X_INTRODUCED_499_,[X_INTRODUCED_187_,X_INTRODUCED_188_,X_INTRODUCED_189_,X_INTRODUCED_134_,X_INTRODUCED_185_,X_INTRODUCED_190_],0);
constraint int_lin_eq(X_INTRODUCED_499_,[X_INTRODUCED_38_,X_INTRODUCED_39_,X_INTRODUCED_40_,X_INTRODUCED_36_,X_INTRODUCED_41_,X_INTRODUCED_99_],0);
constraint int_lin_eq(X_INTRODUCED_499_,[X_INTRODUCED_29_,X_INTRODUCED_30_,X_INTRODUCED_31_,X_INTRODUCED_27_,X_INTRODUCED_32_,X_INTRODUCED_87_],0);
constraint int_lin_eq(X_INTRODUCED_499_,[X_INTRODUCED_211_,X_INTRODUCED_212_,X_INTRODUCED_213_,X_INTRODUCED_166_,X_INTRODUCED_209_,X_INTRODUCED_214_],-1);
constraint int_lin_eq([50,16,16,15,35,32,36,64,10,25,42,61,50,18,60,8,10,56,56,22,51,41,49,10,40,55,34,32,45,24,38,4,23,20,16,46,61,48,64,51,5,15,11,12,10,56,53,52,2,19,32,12,46,3,27,17,21,47,60,7,39,26,54,53,16,52,33,54,16,45,5,2,14,55,45,10,14,31,56,42,37,24,25,9,40,37,40,59,16,12,53,53,30,36,14,9,22,59,55,30,5,55,19,55,21,18,5,18,60,6,39,12,25,15,26,15,4,11,27,54,50,35,3,54,16,1,12,7,50,54,24,26,16,57,9,64,59,46,50,25,44,23,31,22,44,48,28,9,6,36,27,19,36,15,57,8,11,12,40,12,41,49,28,41,52,54,31,33,6,15,26,50,38,49,45,50,18,5,60,49,41,52,3,17,45,51,6,20,43,43,35,43,61,37,22,12,8,51,52,4,24,11,6,57,33,5,61,44,28,13,14,1,47,39,23,47,-1],[X_INTRODUCED_0_,X_INTRODUCED_1_,X_INTRODUCED_2_,X_INTRODUCED_3_,X_INTRODUCED_4_,X_INTRODUCED_5_,X_INTRODUCED_6_,X_INTRODUCED_7_,X_INTRODUCED_8_,X_INTRODUCED_9_,X_INTRODUCED_10_,X_INTRODUCED_11_,X_INTRODUCED_12_,X_INTRODUCED_13_,X_INTRODUCED_14_,X_INTRODUCED_15_,X_INTRODUCED_16_,X_INTRODUCED_17_,X_INTRODUCED_18_,X_INTRODUCED_19_,X_INTRODUCED_20_,X_INTRODUCED_21_,X_INTRODUCED_22_,X_INTRODUCED_23_,X_INTRODUCED_24_,X_INTRODUCED_25_,X_INTRODUCED_26_,X_INTRODUCED_27_,X_INTRODUCED_28_,X_INTRODUCED_29_,X_INTRODUCED_30_,X_INTRODUCED_31_,X_INTRODUCED_32_,X_INTRODUCED_33_,X_INTRODUCED_34_,X_INTRODUCED_35_,X_INTRODUCED_36_,X_INTRODUCED_37_,X_INTRODUCED_38_,X_INTRODUCED_39_,X_INTRODUCED_40_,X_INTRODUCED_41_,X_INTRODUCED_42_,X_INTRODUCED_43_,X_INTRODUCED_44_,X_INTRODUCED_45_,X_INTRODUCED_46_,X_INTRODUCED_47_,X_INTRODUCED_48_,X_INTRODUCED_49_,X_INTRODUCED_50_,X_INTRODUCED_51_,X_INTRODUCED_52_,X_INTRODUCED_53_,X_INTRODUCED_54_,X_INTRODUCED_55_,X_INTRODUCED_56_,X_INTRODUCED_57_,X_INTRODUCED_58_,X_INTRODUCED_59_,X_INTRODUCED_60_,X_INTRODUCED_61_,X_INTRODUCED_62_,X_INTRODUCED_63_,X_INTRODUCED_64_,X_INTRODUCED_65_,X_INTRODUCED_66_,X_INTRODUCED_67_,X_INTRODUCED_68_,X_INTRODUCED_69_,X_INTRODUCED_70_,X_INTRODUCED_71_,X_INTRODUCED_72_,X_INTRODUCED_73_,X_INTRODUCED_74_,X_INTRODUCED_75_,X_INTRODUCED_76_,X_INTRODUCED_77_,X_INTRODUCED_78_,X_INTRODUCED_79_,X_INTRODUCED_80_,X_INTRODUCED_81_,X_INTRODUCED_82_,X_INTRODUCED_83_,X_INTRODUCED_84_,X_INTRODUCED_85_,X_INTRODUCED_86_,X_INTRODUCED_87_,X_INTRODUCED_88_,X_INTRODUCED_89_,X_INTRODUCED_90_,X_INTRODUCED_91_,X_INTRODUCED_92_,X_INTRODUCED_93_,X_INTRODUCED_94_,X_INTRODUCED_95_,X_INTRODUCED_96_,X_INTRODUCED_97_,X_INTRODUCED_98_,X_INTRODUCED_99_,X_INTRODUCED_100_,X_INTRODUCED_101_,X_INTRODUCED_102_,X_INTRODUCED_103_,X_INTRODUCED_104_,X_INTRODUCED_105_,X_INTRODUCED_106_,X_INTRODUCED_107_,X_INTRODUCED_108_,X_INTRODUCED_109_,X_INTRODUCED_110_,X_INTRODUCED_111_,X_INTRODUCED_112_,X_INTRODUCED_113_,X_INTRODUCED_114_,X_INTRODUCED_115_,X_INTRODUCED_116_,X_INTRODUCED_117_,X_INTRODUCED_118_,X_INTRODUCED_119_,X_INTRODUCED_120_,X_INTRODUCED_121_,X_INTRODUCED_122_,X_INTRODUCED_123_,X_INTRODUCED_124_,X_INTRODUCED_125_,X_INTRODUCED_126_,X_INTRODUCED_127_,X_INTRODUCED_128_,X_INTRODUCED_129_,X_INTRODUCED_130_,X_INTRODUCED_131_,X_INTRODUCED_132_,X_INTRODUCED_133_,X_INTRODUCED_134_,X_INTRODUCED_135_,X_INTRODUCED_136_,X_INTRODUCED_137_,X_INTRODUCED_138_,X_INTRODUCED_139_,X_INTRODUCED_140_,X_INTRODUCED_141_,X_INTRODUCED_142_,X_INTRODUCED_143_,X_INTRODUCED_144_,X_INTRODUCED_145_,X_INTRODUCED_146_,X_INTRODUCED_147_,X_INTRODUCED_148_,X_INTRODUCED_149_,X_INTRODUCED_150_,X_INTRODUCED_151_,X_INTRODUCED_152_,X_INTRODUCED_153_,X_INTRODUCED_154_,X_INTRODUCED_155_,X_INTRODUCED_156_,X_INTRODUCED_157_,X_INTRODUCED_158_,X_INTRODUCED_159_,X_INTRODUCED_160_,X_INTRODUCED_161_,X_INTRODUCED_162_,X_INTRODUCED_163_,X_INTRODUCED_164_,X_INTRODUCED_165_,X_INTRODUCED_166_,X_INTRODUCED_167_,X_INTRODUCED_168_,X_INTRODUCED_169_,X_INTRODUCED_170_,X_INTRODUCED_171_,X_INTRODUCED_172_,X_INTRODUCED_173_,X_INTRODUCED_174_,X_INTRODUCED_175_,X_INTRODUCED_176_,X_INTRODUCED_177_,X_INTRODUCED_178_,X_INTRODUCED_179_,X_INTRODUCED_180_,X_INTRODUCED_181_,X_INTRODUCED_182_,X_INTRODUCED_183_,X_INTRODUCED_184_,X_INTRODUCED_185_,X_INTRODUCED_186_,X_INTRODUCED_187_,X_INTRODUCED_188_,X_INTRODUCED_189_,X_INTRODUCED_190_,X_INTRODUCED_191_,X_INTRODUCED_192_,X_INTRODUCED_193_,X_INTRODUCED_194_,X_INTRODUCED_195_,X_INTRODUCED_196_,X_INTRODUCED_197_,X_INTRODUCED_198_,X_INTRODUCED_199_,X_INTRODUCED_200_,X_INTRODUCED_201_,X_INTRODUCED_202_,X_INTRODUCED_203_,X_INTRODUCED_204_,X_INTRODUCED_205_,X_INTRODUCED_206_,X_INTRODUCED_207_,X_INTRODUCED_208_,X_INTRODUCED_209_,X_INTRODUCED_210_,X_INTRODUCED_211_,X_INTRODUCED_212_,X_INTRODUCED_213_,X_INTRODUCED_214_,X_INTRODUCED_215_,X_INTRODUCED_216_],0):: ctx_neg:: defines_var(X_INTRODUCED_216_);
solve  minimize X_INTRODUCED_216_;
